c WARNING: for repeatability, setting FPU to use double precision
d VARIABLES            120738       
d CONSTRAINTS          534820       
c ============================[ Problem Statistics ]=============================
c |                                                                             |
c |  Number of variables:        120738                                         |
c |  Number of clauses:          534820                                         |
c |  Parse time:                   0.10 s                                       |
c |                                                                             |
c ============================[ Search Statistics ]==============================
c | Conflicts |          ORIGINAL         |          LEARNT          | Progress |
c |           |    Vars  Clauses Literals |    Limit  Clauses Lit/Cl |          |
c ===============================================================================
c |       100 |  101849   480940  1166418 |   176344      100     19 | 15.645 % |
c |       250 |  101849   480940  1166418 |   193979      250     27 | 15.645 % |
c |       475 |  101849   480940  1166418 |   213377      475     67 | 15.645 % |
c |       812 |  101849   480940  1166418 |   234714      812     99 | 15.645 % |
c |      1318 |  101849   480940  1166418 |   258186     1318    100 | 15.645 % |
c |      2077 |  101849   480940  1166418 |   284004     2077    112 | 15.645 % |
c |      3216 |  101849   480940  1166418 |   312405     3216    123 | 15.645 % |
c |      4924 |  101849   480940  1166418 |   343645     4924    132 | 15.645 % |
c |      7486 |  101849   480940  1166418 |   378010     7486    173 | 15.645 % |
c |     11330 |  101849   480940  1166418 |   415811    11330    182 | 15.645 % |
c |     17096 |  101849   480940  1166418 |   457392    17096    162 | 15.645 % |
c |     25745 |  101849   480940  1166418 |   503131    25745    151 | 15.645 % |
c |     38719 |  101849   480940  1166418 |   553445    38719    167 | 15.645 % |
c |     58180 |  101849   480940  1166418 |   608789    58180    172 | 15.645 % |
c |     87372 |  101849   480940  1166418 |   669668    87372    174 | 15.645 % |
c |    131161 |  101849   480940  1166418 |   736635   131161    207 | 15.645 % |
c |    196845 |  101849   480940  1166418 |   810298   196845    197 | 15.645 % |
c |    295371 |  101849   480940  1166418 |   891328   295371    191 | 15.645 % |
c |    443160 |  101849   480940  1166418 |   980461   443160    186 | 15.645 % |
c |    664843 |  101849   480940  1166418 |  1078507   664843    179 | 15.645 % |
c |    997368 |  101849   480940  1166418 |  1186358   997368    184 | 15.645 % |
c |   1496156 |  101849   480940  1166418 |  1304994   322317    121 | 15.645 % |
c ===============================================================================
c restarts              : 4093
c conflicts             : 2142672        (1195 /sec)
c decisions             : 4939013        (0.00 % random) (2755 /sec)
c propagations          : 3499862777     (1952556 /sec)
c conflict literals     : 355033851      (39.81 % deleted)
d RESTARTS             4093
d FAILURES             2142672      
d NODES                4939013      
d BACKTRACKS           4939013      
d PROPAGATIONS         3499862777   
d NOGOODSIZE           165.70 
d MEMORY               1039.00 
d TIME                 1792.45 

s UNKNOWN
